NAME : graph6
COMMENT : H Algorithm Solution by Oscar Riveros [http://twitter.com/maxtuno]
TYPE : TOUR
DIMENSION : 94
TOUR_SECTION
52
89
58
68
18
49
64
53
2
55
66
32
27
87
26
10
39
1
85
19
84
5
56
79
76
65
60
22
74
78
46
72
11
50
54
62
8
47
40
83
92
82
29
43
57
30
44
31
9
41
33
59
25
61
21
75
45
4
34
93
67
17
37
16
23
42
48
73
71
14
36
20
24
90
86
77
91
6
88
69
28
13
7
38
12
3
35
80
94
63
70
81
51
15
-1
EOF
